(set-logic QF_UF)
(declare-fun A0 () Bool)
(declare-fun A1 () Bool)
(declare-fun A2 () Bool)
(declare-fun A3 () Bool)
(declare-fun A4 () Bool)
(declare-fun A5 () Bool)
(declare-fun A6 () Bool)
(declare-fun A7 () Bool)
(declare-fun A8 () Bool)
(declare-fun A9 () Bool)
(declare-fun A10 () Bool)
(declare-fun A12 () Bool)
(declare-fun A13 () Bool)
(declare-fun A14 () Bool)
(declare-fun A15 () Bool)
(declare-fun A16 () Bool)
(declare-fun A17 () Bool)
(declare-fun A18 () Bool)
(declare-fun A19 () Bool)
(declare-fun A20 () Bool)
(declare-fun A21 () Bool)
(declare-fun A22 () Bool)
(declare-fun A24 () Bool)
(declare-fun A25 () Bool)
(declare-fun A26 () Bool)
(declare-fun A28 () Bool)
(declare-fun A29 () Bool)
(assert (let ((.def_0 (not A18))) (let ((.def_1 (or A9 .def_0))) (let ((.def_2 (not .def_1))) (let ((.def_3 (not A2))) (let ((.def_4 (and .def_3 A1))) (let ((.def_5 (not .def_4))) (let ((.def_6 (or .def_5 .def_2))) (let ((.def_7 (not A15))) (let ((.def_8 (and .def_7 A2))) (let ((.def_9 (not .def_8))) (let ((.def_10 (not A20))) (let ((.def_11 (or A7 .def_10))) (let ((.def_12 (not .def_11))) (let ((.def_13 (and .def_12 .def_9))) (let ((.def_14 (not .def_13))) (let ((.def_15 (and .def_14 .def_6))) (let ((.def_16 (or A17 A9))) (let ((.def_17 (not A24))) (let ((.def_18 (not A5))) (let ((.def_19 (and .def_18 .def_17))) (let ((.def_20 (and .def_19 .def_16))) (let ((.def_21 (not .def_20))) (let ((.def_22 (or A26 .def_7))) (let ((.def_23 (and A24 .def_10))) (let ((.def_24 (and .def_23 .def_22))) (let ((.def_25 (not .def_24))) (let ((.def_26 (or .def_25 .def_21))) (let ((.def_27 (and .def_26 .def_15))) (let ((.def_28 (not A12))) (let ((.def_29 (= A1 .def_28))) (let ((.def_30 (not .def_29))) (let ((.def_31 (not A16))) (let ((.def_32 (and A8 .def_31))) (let ((.def_33 (not .def_32))) (let ((.def_34 (or .def_33 .def_30))) (let ((.def_35 (not .def_34))) (let ((.def_36 (not A13))) (let ((.def_37 (or .def_3 .def_36))) (let ((.def_38 (not A0))) (let ((.def_39 (not A4))) (let ((.def_40 (and .def_39 .def_38))) (let ((.def_41 (not .def_40))) (let ((.def_42 (or .def_41 .def_37))) (let ((.def_43 (or .def_42 .def_35))) (let ((.def_44 (not .def_43))) (let ((.def_45 (not A7))) (let ((.def_46 (not A19))) (let ((.def_47 (and .def_46 .def_45))) (let ((.def_48 (not A1))) (let ((.def_49 (not A6))) (let ((.def_50 (or .def_49 .def_48))) (let ((.def_51 (not .def_50))) (let ((.def_52 (or .def_51 .def_47))) (let ((.def_53 (not .def_52))) (let ((.def_54 (or A16 A10))) (let ((.def_55 (not .def_54))) (let ((.def_56 (not A29))) (let ((.def_57 (not A25))) (let ((.def_58 (= .def_57 .def_56))) (let ((.def_59 (not .def_58))) (let ((.def_60 (or .def_59 .def_55))) (let ((.def_61 (and .def_60 .def_53))) (let ((.def_62 (not .def_61))) (let ((.def_63 (and .def_62 .def_44))) (let ((.def_64 (not .def_63))) (let ((.def_65 (or .def_64 .def_27))) (let ((.def_66 (and A13 A21))) (let ((.def_67 (not .def_66))) (let ((.def_68 (not A17))) (let ((.def_69 (and .def_0 .def_68))) (let ((.def_70 (and .def_69 .def_67))) (let ((.def_71 (not .def_70))) (let ((.def_72 (not A22))) (let ((.def_73 (and .def_31 .def_72))) (let ((.def_74 (not .def_73))) (let ((.def_75 (and A14 .def_17))) (let ((.def_76 (and .def_75 .def_74))) (let ((.def_77 (= .def_76 .def_71))) (let ((.def_78 (not A10))) (let ((.def_79 (not A28))) (let ((.def_80 (and .def_79 .def_78))) (let ((.def_81 (not A14))) (let ((.def_82 (and .def_31 .def_81))) (let ((.def_83 (or .def_82 .def_80))) (let ((.def_84 (not .def_83))) (let ((.def_85 (and .def_46 A15))) (let ((.def_86 (or A5 A13))) (let ((.def_87 (not .def_86))) (let ((.def_88 (and .def_87 .def_85))) (let ((.def_89 (not .def_88))) (let ((.def_90 (or .def_89 .def_84))) (let ((.def_91 (and .def_90 .def_77))) (let ((.def_92 (not A26))) (let ((.def_93 (= A6 .def_92))) (let ((.def_94 (not .def_93))) (let ((.def_95 (and .def_38 A3))) (let ((.def_96 (not .def_95))) (let ((.def_97 (or .def_96 .def_94))) (let ((.def_98 (not .def_97))) (let ((.def_99 (= A0 A8))) (let ((.def_100 (not .def_99))) (let ((.def_101 (and .def_46 .def_49))) (let ((.def_102 (not .def_101))) (let ((.def_103 (or .def_102 .def_100))) (let ((.def_104 (and .def_103 .def_98))) (let ((.def_105 (not .def_104))) (let ((.def_106 (or A5 A18))) (let ((.def_107 (or .def_17 A26))) (let ((.def_108 (or .def_107 .def_106))) (let ((.def_109 (not .def_108))) (let ((.def_110 (not A9))) (let ((.def_111 (or .def_110 .def_39))) (let ((.def_112 (= .def_3 .def_10))) (let ((.def_113 (not .def_112))) (let ((.def_114 (or .def_113 .def_111))) (let ((.def_115 (or .def_114 .def_109))) (let ((.def_116 (not .def_115))) (let ((.def_117 (and .def_116 .def_105))) (let ((.def_118 (not .def_117))) (let ((.def_119 (or .def_118 .def_91))) (let ((.def_120 (or .def_119 .def_65))) (let ((.def_121 (not .def_120))) .def_121)))))))))))))))))))))))))))))))))))))))))))))))))))))))))))))))))))))))))))))))))))))))))))))))))))))))))))))))))))))))))))
(check-sat)
